(declare-fun var0 () String)
(assert (str.in.re var0 (re.++ (re.* (re.union (str.to.re "ff") (str.to.re "g"))) (re.++ (re.* (re.+ (str.to.re "ee"))) (re.++ (re.* (re.union (str.to.re "cc") (str.to.re "dd"))) (re.++ (re.* (re.union (str.to.re "aa") (str.to.re "bbb"))) (re.++ (re.* (re.union (str.to.re "88") (str.to.re "99"))) (re.++ (re.union (re.+ (str.to.re "6")) (re.* (str.to.re "7"))) (re.++ (re.* (re.union (str.to.re "444") (str.to.re "555"))) (re.++ (re.+ (re.* (str.to.re "3"))) (re.++ (re.* (re.* (str.to.re "2"))) (re.++ (re.+ (re.* (str.to.re "11"))) (re.* (re.* (str.to.re "000")))))))))))))))
(assert (not (str.in.re var0 (re.++ (re.+ (re.union (str.to.re "ddd") (str.to.re "ee"))) (re.++ (re.* (re.union (str.to.re "bbb") (str.to.re "c"))) (re.++ (re.union (re.+ (str.to.re "99")) (re.+ (str.to.re "aa"))) (re.++ (re.+ (re.union (str.to.re "7") (str.to.re "888"))) (re.++ (re.* (re.+ (str.to.re "66"))) (re.++ (re.* (re.+ (str.to.re "55"))) (re.++ (re.+ (re.* (str.to.re "44"))) (re.++ (re.* (re.* (str.to.re "33"))) (re.++ (re.* (re.+ (str.to.re "22"))) (re.++ (re.+ (re.* (str.to.re "1"))) (re.+ (re.* (str.to.re "0"))))))))))))))))
(check-sat)